c turning on binary mode checking
c parsing input formula with 259840 variables and 1039924 clauses
c finished parsing, read 3121510 bytes from proof file
c detected empty clause; start verification via backward checking
c 3747 of 1039924 clauses in core                            
c 1012 of 130938 lemmas in core using 18784 resolution steps
c 0 RAT lemmas in core; 82 redundant literals in core lemmas
s VERIFIED
c verification time: 1.746 seconds
